Name:		CBMix22
Optimal value:	-1
#Vehicles:	-1
Capacity:	1963
Depot Node:	1
#Nodes:		25
#Edges:		10
#Arcs:		48
#Required N:	7
#Required E:	10
#Required A:	25

ReN.	DEMAND	S. COST
N4	458	458
N5	114	114
N7	320	320
N10	251	251
N16	378	378
N18	394	394
N19	372	372

ReE.	From N.	To N.	T. COST	DEMAND	S. COST
E1	2	7	27	44	71
E2	3	9	26	227	253
E3	6	12	17	394	411
E4	9	15	27	410	437
E5	14	15	19	460	479
E6	16	21	20	201	221
E7	17	18	19	494	513
E8	20	21	20	560	580
E9	21	22	20	273	293
E10	22	23	36	535	571

EDGE	FROM N.	TO N.	T. COST

ReA.	FROM N.	TO N.	T. COST	DEMAND	S. COST
A1	2	6	21	287	308
A2	3	4	18	183	201
A3	4	3	18	266	284
A4	4	5	17	107	124
A5	4	9	19	127	146
A6	7	6	21	318	339
A7	9	14	18	209	227
A8	10	1	38	212	250
A9	10	16	26	93	119
A10	11	10	17	355	372
A11	11	16	17	383	400
A12	12	13	40	296	336
A13	12	22	42	148	190
A14	14	18	22	30	52
A15	15	5	37	346	383
A16	16	10	26	244	270
A17	16	11	17	48	65
A18	17	13	21	311	332
A19	18	14	22	241	263
A20	19	15	17	242	259
A21	19	18	18	251	269
A22	20	10	46	121	167
A23	22	16	31	81	112
A24	23	17	19	242	261
A25	25	24	21	290	311

ARC	FROM N.	TO N.	T. COST
NrA1	1	2	36
NrA2	2	1	36
NrA3	2	3	39
NrA4	5	15	37
NrA5	7	8	20
NrA6	7	13	27
NrA7	8	3	21
NrA8	8	13	16
NrA9	9	4	19
NrA10	10	11	17
NrA11	12	11	17
NrA12	13	7	27
NrA13	13	12	40
NrA14	13	17	21
NrA15	14	13	19
NrA16	15	19	17
NrA17	16	22	31
NrA18	18	19	18
NrA19	18	24	20
NrA20	19	25	23
NrA21	22	12	42
NrA22	24	23	20
NrA23	24	25	21

